Route #1: 102 104 7 153 12 46 140 145 122 22 23 206 154 211 158 24 72 89 103 82 14 61 97 71 98 202 109
Route #2: 117 177 180 88 59 131 62 189 188 2 120 113 196 3 68 163 58 210 21 9 63 191 53
Route #3: 64 100 127 123 197 35 81 205 136 25 121 135 143 179 116 137 207 38 156 1 181 186 114 175 172
Route #4: 8 85 94 112 125 124 126 51 152 17 36 43 151 164 65 192 199 115 105 111 176 204 201 26 11
Route #5: 87 165 167 187 132 170 168 173 86 162 108 160 183 178 149 161 146 182 169 155 119 79 185 107
Route #6: 67 130 194 159 171 60 101 13 27 195 184 141 31 144 99 50 39 54 148 83 32 33
Route #7: 80 84 190 166 52 5 208 19 74 69 78 91 55 48 203 37 30 41 15 18 147 200 16 6
Route #8: 142 29 28 198 4 93 209 128 133 134 45 95 77 174 20 47 193 76 75 73 96
Route #9: 40 42 66 110 150 57 70 90 157 106 44 56 49 92 10 118 34 129 138 139
Cost 84718
Time 330.541
